(set-info :smt-lib-version 2.6)
(set-logic QF_S)
(set-info :source |
Generated by: Murphy Berzish, Mitja Kulczynski, Federico Mora, Florin Manea, Joel Day, Dirk Nowotka, Vijay Ganesh, Zhengyang Lu
Generated on: 2020-10-01
Description: Translated from a collection of real-world regex queries, AutomataArk, collected by Loris D’Antoni and Fang Wang: https://github.com/lorisdanto/automatark
Application: Evaluate solvers on real-world regex queries
Target solver: Z3str3RE, CVC4, OSTRICH, Z3seq, Z3str3, Z3-Trau
Publications: Berzish, M., Kulczynski, M., Mora, F., Manea, F., Day, J. D., Nowotka, D., & Ganesh, V. (2021, July). An SMT solver for regular expressions and linear arithmetic over string length. In CAV 2021.
|)
(set-info :license "https://creativecommons.org/licenses/by/4.0/")
(set-info :category "industrial")
(set-info :status sat)

(declare-const X String)
(assert (not (str.in_re X (re.++ (re.union (re.++ (re.union (re.++ (str.to_re "0") (re.union (str.to_re "1") (re.range "3" "7"))) (re.++ (str.to_re "1") (re.union (str.to_re "1") (str.to_re "2") (str.to_re "3") (str.to_re "5") (str.to_re "7") (str.to_re "8") (str.to_re "9"))) (re.++ (re.union (str.to_re "2") (str.to_re "5") (str.to_re "7")) (re.range "0" "9")) (re.++ (str.to_re "3") (re.union (re.range "0" "3") (re.range "5" "9"))) (re.++ (str.to_re "4") (re.union (str.to_re "0") (str.to_re "1") (str.to_re "2") (re.range "4" "9"))) (re.++ (str.to_re "6") (re.union (str.to_re "0") (str.to_re "1") (re.range "3" "7") (str.to_re "9"))) (re.++ (str.to_re "8") (re.union (str.to_re "0") (str.to_re "1") (str.to_re "2") (re.range "4" "9"))) (re.++ (str.to_re "9") (re.union (re.range "0" "5") (str.to_re "7") (str.to_re "8") (str.to_re "9")))) ((_ re.loop 3 3) (re.range "0" "9"))) (re.++ (str.to_re "10") (re.union (re.++ (re.range "2" "9") ((_ re.loop 2 2) (re.range "0" "9"))) (re.++ (str.to_re "1") (re.union (re.++ (re.range "2" "9") (re.range "0" "9")) (re.++ (str.to_re "11") (re.range "5" "9")))))) (re.++ (str.to_re "14") (re.union (re.++ (re.union (str.to_re "0") (str.to_re "1")) ((_ re.loop 2 2) (re.range "0" "9"))) (str.to_re "715")))) (str.to_re "\u{a}")))))
(assert (not (str.in_re X (re.++ (str.to_re "User-Agent:") (re.* (re.union (str.to_re "\u{a}") (str.to_re "\u{d}"))) (str.to_re "Echelon") (re.* re.allchar) (str.to_re "Blacksnprtz|dialnoSearch\u{a}")))))
(assert (not (str.in_re X (re.++ (str.to_re "/") (re.comp (str.to_re "\u{0}")) (re.+ (re.union (str.to_re "\u{0}") (str.to_re "\u{1}"))) (str.to_re "/\u{a}")))))
(assert (not (str.in_re X (re.++ ((_ re.loop 3 3) (re.++ (re.union (re.++ (str.to_re "25") (re.range "0" "5")) (re.++ (str.to_re "2") (re.range "0" "4") (re.range "0" "9")) (re.++ (str.to_re "1") ((_ re.loop 2 2) (re.range "0" "9"))) ((_ re.loop 1 2) (re.range "0" "9"))) (str.to_re "."))) (re.union (re.++ (str.to_re "25") (re.range "0" "5")) (re.++ (str.to_re "2") (re.range "0" "4") (re.range "0" "9")) (re.++ (str.to_re "1") ((_ re.loop 2 2) (re.range "0" "9"))) ((_ re.loop 1 2) (re.range "0" "9"))) (str.to_re "\u{a}/") (re.union (re.range "0" "9") (re.++ (re.range "0" "2") (re.range "0" "9")) (re.++ (str.to_re "3") (re.range "0" "2")))))))
(assert (not (str.in_re X (re.++ (str.to_re "SbAts") (re.* (re.union (str.to_re "\u{a}") (str.to_re "\u{d}"))) (str.to_re "Subject:") (re.+ (re.range "0" "9")) (str.to_re "dcww.dmcast.com\u{a}")))))
(check-sat)

(exit)
